c nIsolatedPIs 0
c maxPI 32
p cnf 236 613
c gate 33 -8 -24 0
-8 -33 0
-24 -33 0
8 24 33 0
c gate 34 8 24 0
8 -34 0
24 -34 0
-8 -24 34 0
c gate 35 -33 -34 0
-33 -35 0
-34 -35 0
33 34 35 0
c gate 36 -7 23 0
-7 -36 0
23 -36 0
7 -23 36 0
c gate 37 6 -22 0
6 -37 0
-22 -37 0
-6 22 37 0
c gate 38 -7 -23 0
-7 -38 0
-23 -38 0
7 23 38 0
c gate 39 7 23 0
7 -39 0
23 -39 0
-7 -23 39 0
c gate 40 -38 -39 0
-38 -40 0
-39 -40 0
38 39 40 0
c gate 41 -37 -40 0
-37 -41 0
-40 -41 0
37 40 41 0
c gate 42 -2 18 0
-2 -42 0
18 -42 0
2 -18 42 0
c gate 43 -1 17 0
-1 -43 0
17 -43 0
1 -17 43 0
c gate 44 -42 -43 0
-42 -44 0
-43 -44 0
42 43 44 0
c gate 45 2 -18 0
2 -45 0
-18 -45 0
-2 18 45 0
c gate 46 3 -19 0
3 -46 0
-19 -46 0
-3 19 46 0
c gate 47 -45 -46 0
-45 -47 0
-46 -47 0
45 46 47 0
c gate 48 -44 47 0
-44 -48 0
47 -48 0
44 -47 48 0
c gate 49 -4 20 0
-4 -49 0
20 -49 0
4 -20 49 0
c gate 50 -3 19 0
-3 -50 0
19 -50 0
3 -19 50 0
c gate 51 -49 -50 0
-49 -51 0
-50 -51 0
49 50 51 0
c gate 52 -48 51 0
-48 -52 0
51 -52 0
48 -51 52 0
c gate 53 5 -21 0
5 -53 0
-21 -53 0
-5 21 53 0
c gate 54 4 -20 0
4 -54 0
-20 -54 0
-4 20 54 0
c gate 55 -53 -54 0
-53 -55 0
-54 -55 0
53 54 55 0
c gate 56 -52 55 0
-52 -56 0
55 -56 0
52 -55 56 0
c gate 57 -6 -22 0
-6 -57 0
-22 -57 0
6 22 57 0
c gate 58 6 22 0
6 -58 0
22 -58 0
-6 -22 58 0
c gate 59 -57 -58 0
-57 -59 0
-58 -59 0
57 58 59 0
c gate 60 -5 21 0
-5 -60 0
21 -60 0
5 -21 60 0
c gate 61 -59 -60 0
-59 -61 0
-60 -61 0
59 60 61 0
c gate 62 -56 61 0
-56 -62 0
61 -62 0
56 -61 62 0
c gate 63 41 -62 0
41 -63 0
-62 -63 0
-41 62 63 0
c gate 64 -36 -63 0
-36 -64 0
-63 -64 0
36 63 64 0
c gate 65 -35 64 0
-35 -65 0
64 -65 0
35 -64 65 0
c gate 66 35 41 0
35 -66 0
41 -66 0
-35 -41 66 0
c gate 67 64 66 0
64 -67 0
66 -67 0
-64 -66 67 0
c gate 68 -65 -67 0
-65 -68 0
-67 -68 0
65 67 68 0
c gate 69 -5 -21 0
-5 -69 0
-21 -69 0
5 21 69 0
c gate 70 -4 -20 0
-4 -70 0
-20 -70 0
4 20 70 0
c gate 71 -69 -70 0
-69 -71 0
-70 -71 0
69 70 71 0
c gate 72 1 17 0
1 -72 0
17 -72 0
-1 -17 72 0
c gate 73 2 18 0
2 -73 0
18 -73 0
-2 -18 73 0
c gate 74 -72 -73 0
-72 -74 0
-73 -74 0
72 73 74 0
c gate 75 -46 -50 0
-46 -75 0
-50 -75 0
46 50 75 0
c gate 76 -2 -18 0
-2 -76 0
-18 -76 0
2 18 76 0
c gate 77 -75 -76 0
-75 -77 0
-76 -77 0
75 76 77 0
c gate 78 -74 77 0
-74 -78 0
77 -78 0
74 -77 78 0
c gate 79 3 19 0
3 -79 0
19 -79 0
-3 -19 79 0
c gate 80 4 20 0
4 -80 0
20 -80 0
-4 -20 80 0
c gate 81 -79 -80 0
-79 -81 0
-80 -81 0
79 80 81 0
c gate 82 -78 81 0
-78 -82 0
81 -82 0
78 -81 82 0
c gate 83 71 -82 0
71 -83 0
-82 -83 0
-71 82 83 0
c gate 84 5 21 0
5 -84 0
21 -84 0
-5 -21 84 0
c gate 85 59 -84 0
59 -85 0
-84 -85 0
-59 84 85 0
c gate 86 -83 85 0
-83 -86 0
85 -86 0
83 -85 86 0
c gate 87 -57 -86 0
-57 -87 0
-86 -87 0
57 86 87 0
c gate 88 40 -87 0
40 -88 0
-87 -88 0
-40 87 88 0
c gate 89 35 88 0
35 -89 0
88 -89 0
-35 -88 89 0
c gate 90 -86 -88 0
-86 -90 0
-88 -90 0
86 88 90 0
c gate 91 72 73 0
72 -91 0
73 -91 0
-72 -73 91 0
c gate 92 90 91 0
90 -92 0
91 -92 0
-90 -91 92 0
c gate 93 -89 -92 0
-89 -93 0
-92 -93 0
89 92 93 0
c gate 94 -11 -27 0
-11 -94 0
-27 -94 0
11 27 94 0
c gate 95 12 28 0
12 -95 0
28 -95 0
-12 -28 95 0
c gate 96 -12 -28 0
-12 -96 0
-28 -96 0
12 28 96 0
c gate 97 -95 -96 0
-95 -97 0
-96 -97 0
95 96 97 0
c gate 98 -94 97 0
-94 -98 0
97 -98 0
94 -97 98 0
c gate 99 9 25 0
9 -99 0
25 -99 0
-9 -25 99 0
c gate 100 -34 -99 0
-34 -100 0
-99 -100 0
34 99 100 0
c gate 101 -33 -38 0
-33 -101 0
-38 -101 0
33 38 101 0
c gate 102 -88 101 0
-88 -102 0
101 -102 0
88 -101 102 0
c gate 103 100 -102 0
100 -103 0
-102 -103 0
-100 102 103 0
c gate 104 -10 -26 0
-10 -104 0
-26 -104 0
10 26 104 0
c gate 105 -9 -25 0
-9 -105 0
-25 -105 0
9 25 105 0
c gate 106 -104 -105 0
-104 -106 0
-105 -106 0
104 105 106 0
c gate 107 -103 106 0
-103 -107 0
106 -107 0
103 -106 107 0
c gate 108 10 26 0
10 -108 0
26 -108 0
-10 -26 108 0
c gate 109 11 27 0
11 -109 0
27 -109 0
-11 -27 109 0
c gate 110 -108 -109 0
-108 -110 0
-109 -110 0
108 109 110 0
c gate 111 -107 110 0
-107 -111 0
110 -111 0
107 -110 111 0
c gate 112 98 -111 0
98 -112 0
-111 -112 0
-98 111 112 0
c gate 113 -13 -29 0
-13 -113 0
-29 -113 0
13 29 113 0
c gate 114 13 29 0
13 -114 0
29 -114 0
-13 -29 114 0
c gate 115 -113 -114 0
-113 -115 0
-114 -115 0
113 114 115 0
c gate 116 -95 -112 0
-95 -116 0
-112 -116 0
95 112 116 0
c gate 117 -115 -116 0
-115 -117 0
-116 -117 0
115 116 117 0
c gate 118 -112 -117 0
-112 -118 0
-117 -118 0
112 117 118 0
c gate 119 93 118 0
93 -119 0
118 -119 0
-93 -118 119 0
c gate 120 100 -101 0
100 -120 0
-101 -120 0
-100 101 120 0
c gate 121 98 106 0
98 -121 0
106 -121 0
-98 -106 121 0
c gate 122 -120 121 0
-120 -122 0
121 -122 0
120 -121 122 0
c gate 123 111 122 0
111 -123 0
122 -123 0
-111 -122 123 0
c gate 124 89 -123 0
89 -124 0
-123 -124 0
-89 123 124 0
c gate 125 118 -124 0
118 -125 0
-124 -125 0
-118 124 125 0
c gate 126 16 32 0
16 -126 0
32 -126 0
-16 -32 126 0
c gate 127 -16 -32 0
-16 -127 0
-32 -127 0
16 32 127 0
c gate 128 -126 -127 0
-126 -128 0
-127 -128 0
126 127 128 0
c gate 129 -15 -31 0
-15 -129 0
-31 -129 0
15 31 129 0
c gate 130 15 31 0
15 -130 0
31 -130 0
-15 -31 130 0
c gate 131 -14 -30 0
-14 -131 0
-30 -131 0
14 30 131 0
c gate 132 14 30 0
14 -132 0
30 -132 0
-14 -30 132 0
c gate 133 -131 -132 0
-131 -133 0
-132 -133 0
131 132 133 0
c gate 134 -113 -116 0
-113 -134 0
-116 -134 0
113 116 134 0
c gate 135 -114 -134 0
-114 -135 0
-134 -135 0
114 134 135 0
c gate 136 133 135 0
133 -136 0
135 -136 0
-133 -135 136 0
c gate 137 -131 -136 0
-131 -137 0
-136 -137 0
131 136 137 0
c gate 138 -130 -137 0
-130 -138 0
-137 -138 0
130 137 138 0
c gate 139 -129 -138 0
-129 -139 0
-138 -139 0
129 138 139 0
c gate 140 128 -139 0
128 -140 0
-139 -140 0
-128 139 140 0
c gate 141 -128 139 0
-128 -141 0
139 -141 0
128 -139 141 0
c gate 142 -140 -141 0
-140 -142 0
-141 -142 0
140 141 142 0
c gate 143 -95 -114 0
-95 -143 0
-114 -143 0
95 114 143 0
c gate 144 133 143 0
133 -144 0
143 -144 0
-133 -143 144 0
c gate 145 -133 -143 0
-133 -145 0
-143 -145 0
133 143 145 0
c gate 146 -144 -145 0
-144 -146 0
-145 -146 0
144 145 146 0
c gate 147 -133 -135 0
-133 -147 0
-135 -147 0
133 135 147 0
c gate 148 -136 -147 0
-136 -148 0
-147 -148 0
136 147 148 0
c gate 149 146 -148 0
146 -149 0
-148 -149 0
-146 148 149 0
c gate 150 -117 -149 0
-117 -150 0
-149 -150 0
117 149 150 0
c gate 151 -146 148 0
-146 -151 0
148 -151 0
146 -148 151 0
c gate 152 -149 -151 0
-149 -152 0
-151 -152 0
149 151 152 0
c gate 153 -147 -152 0
-147 -153 0
-152 -153 0
147 152 153 0
c gate 154 -150 -153 0
-150 -154 0
-153 -154 0
150 153 154 0
c gate 155 137 -144 0
137 -155 0
-144 -155 0
-137 144 155 0
c gate 156 -129 -130 0
-129 -156 0
-130 -156 0
129 130 156 0
c gate 157 -137 -156 0
-137 -157 0
-156 -157 0
137 156 157 0
c gate 158 -131 -144 0
-131 -158 0
-144 -158 0
131 144 158 0
c gate 159 156 -158 0
156 -159 0
-158 -159 0
-156 158 159 0
c gate 160 -157 -159 0
-157 -160 0
-159 -160 0
157 159 160 0
c gate 161 -155 160 0
-155 -161 0
160 -161 0
155 -160 161 0
c gate 162 -154 -161 0
-154 -162 0
-161 -162 0
154 161 162 0
c gate 163 -142 -162 0
-142 -163 0
-162 -163 0
142 162 163 0
c gate 164 142 162 0
142 -164 0
162 -164 0
-142 -162 164 0
c gate 165 -129 -159 0
-129 -165 0
-159 -165 0
129 159 165 0
c gate 166 128 -165 0
128 -166 0
-165 -166 0
-128 165 166 0
c gate 167 -128 165 0
-128 -167 0
165 -167 0
128 -165 167 0
c gate 168 -166 -167 0
-166 -168 0
-167 -168 0
166 167 168 0
c gate 169 -164 168 0
-164 -169 0
168 -169 0
164 -168 169 0
c gate 170 -163 -169 0
-163 -170 0
-169 -170 0
163 169 170 0
c gate 171 -125 170 0
-125 -171 0
170 -171 0
125 -170 171 0
c gate 172 -119 -171 0
-119 -172 0
-171 -172 0
119 171 172 0
c gate 173 139 166 0
139 -173 0
166 -173 0
-139 -166 173 0
c gate 174 -62 -173 0
-62 -174 0
-173 -174 0
62 173 174 0
c gate 175 172 174 0
172 -175 0
174 -175 0
-172 -174 175 0
c gate 176 40 62 0
40 -176 0
62 -176 0
-40 -62 176 0
c gate 177 -62 -126 0
-62 -177 0
-126 -177 0
62 126 177 0
c gate 178 -166 177 0
-166 -178 0
177 -178 0
166 -177 178 0
c gate 179 140 178 0
140 -179 0
178 -179 0
-140 -178 179 0
c gate 180 -176 -179 0
-176 -180 0
-179 -180 0
176 179 180 0
c gate 181 -175 180 0
-175 -181 0
180 -181 0
175 -180 181 0
c gate 182 10 -26 0
10 -182 0
-26 -182 0
-10 26 182 0
c gate 183 9 -25 0
9 -183 0
-25 -183 0
-9 25 183 0
c gate 184 -9 25 0
-9 -184 0
25 -184 0
9 -25 184 0
c gate 185 8 -24 0
8 -185 0
-24 -185 0
-8 24 185 0
c gate 186 -65 -185 0
-65 -186 0
-185 -186 0
65 185 186 0
c gate 187 -184 -186 0
-184 -187 0
-186 -187 0
184 186 187 0
c gate 188 -183 -187 0
-183 -188 0
-187 -188 0
183 187 188 0
c gate 189 -104 -108 0
-104 -189 0
-108 -189 0
104 108 189 0
c gate 190 -188 -189 0
-188 -190 0
-189 -190 0
188 189 190 0
c gate 191 -182 -190 0
-182 -191 0
-190 -191 0
182 190 191 0
c gate 192 -94 -109 0
-94 -192 0
-109 -192 0
94 109 192 0
c gate 193 191 -192 0
191 -193 0
-192 -193 0
-191 192 193 0
c gate 194 -128 -133 0
-128 -194 0
-133 -194 0
128 133 194 0
c gate 195 -97 -156 0
-97 -195 0
-156 -195 0
97 156 195 0
c gate 196 -115 195 0
-115 -196 0
195 -196 0
115 -195 196 0
c gate 197 194 196 0
194 -197 0
196 -197 0
-194 -196 197 0
c gate 198 193 197 0
193 -198 0
197 -198 0
-193 -197 198 0
c gate 199 -191 192 0
-191 -199 0
192 -199 0
191 -192 199 0
c gate 200 -193 -199 0
-193 -200 0
-199 -200 0
193 199 200 0
c gate 201 -183 -185 0
-183 -201 0
-185 -201 0
183 185 201 0
c gate 202 -189 -201 0
-189 -202 0
-201 -202 0
189 201 202 0
c gate 203 -182 -202 0
-182 -203 0
-202 -203 0
182 202 203 0
c gate 204 192 -203 0
192 -204 0
-203 -204 0
-192 203 204 0
c gate 205 -200 -204 0
-200 -205 0
-204 -205 0
200 204 205 0
c gate 206 189 201 0
189 -206 0
201 -206 0
-189 -201 206 0
c gate 207 -202 -206 0
-202 -207 0
-206 -207 0
202 206 207 0
c gate 208 188 189 0
188 -208 0
189 -208 0
-188 -189 208 0
c gate 209 -190 -208 0
-190 -209 0
-208 -209 0
190 208 209 0
c gate 210 207 -209 0
207 -210 0
-209 -210 0
-207 209 210 0
c gate 211 -207 209 0
-207 -211 0
209 -211 0
207 -209 211 0
c gate 212 -67 181 0
-67 -212 0
181 -212 0
67 -181 212 0
c gate 213 -65 -212 0
-65 -213 0
-212 -213 0
65 212 213 0
c gate 214 -183 -184 0
-183 -214 0
-184 -214 0
183 184 214 0
c gate 215 65 -214 0
65 -215 0
-214 -215 0
-65 214 215 0
c gate 216 -213 -215 0
-213 -216 0
-215 -216 0
213 215 216 0
c gate 217 -211 216 0
-211 -217 0
216 -217 0
211 -216 217 0
c gate 218 -210 -217 0
-210 -218 0
-217 -218 0
210 217 218 0
c gate 219 -205 -218 0
-205 -219 0
-218 -219 0
205 218 219 0
c gate 220 191 204 0
191 -220 0
204 -220 0
-191 -204 220 0
c gate 221 -193 -220 0
-193 -221 0
-220 -221 0
193 220 221 0
c gate 222 -219 221 0
-219 -222 0
221 -222 0
219 -221 222 0
c gate 223 -198 -222 0
-198 -223 0
-222 -223 0
198 222 223 0
c gate 224 -181 223 0
-181 -224 0
223 -224 0
181 -223 224 0
c gate 225 72 76 0
72 -225 0
76 -225 0
-72 -76 225 0
c gate 226 90 -225 0
90 -226 0
-225 -226 0
-90 225 226 0
c gate 227 -123 -226 0
-123 -227 0
-226 -227 0
123 226 227 0
c gate 228 118 -227 0
118 -228 0
-227 -228 0
-118 227 228 0
c gate 229 170 -228 0
170 -229 0
-228 -229 0
-170 228 229 0
c gate 230 174 -229 0
174 -230 0
-229 -230 0
-174 229 230 0
c gate 231 180 -230 0
180 -231 0
-230 -231 0
-180 230 231 0
c gate 232 -223 231 0
-223 -232 0
231 -232 0
223 -231 232 0
c gate 233 -224 -232 0
-224 -233 0
-232 -233 0
224 232 233 0
c gate 234 68 233 0
68 -234 0
233 -234 0
-68 -233 234 0
c gate 235 -68 -233 0
-68 -235 0
-233 -235 0
68 233 235 0
c gate 236 -234 -235 0
-234 -236 0
-235 -236 0
234 235 236 0
c PO
236 0
